
******************************************************************************
This program contains Ipopt, a library for large-scale nonlinear optimization.
 Ipopt is released as open source code under the Eclipse Public License (EPL).
         For more information visit http://projects.coin-or.org/Ipopt
******************************************************************************

This is Ipopt version 3.12.6, running with linear solver ma57.

Number of nonzeros in equality constraint Jacobian...:        0
Number of nonzeros in inequality constraint Jacobian.:        0
Number of nonzeros in Lagrangian Hessian.............:     8999

Total number of variables............................:     3000
                     variables with only lower bounds:        0
                variables with lower and upper bounds:        0
                     variables with only upper bounds:        0
Total number of equality constraints.................:        0
Total number of inequality constraints...............:        0
        inequality constraints with only lower bounds:        0
   inequality constraints with lower and upper bounds:        0
        inequality constraints with only upper bounds:        0

iter    objective    inf_pr   inf_du lg(mu)  ||d||  lg(rg) alpha_du alpha_pr  ls
   0  7.4003547e+04 0.00e+00 7.38e+01  -1.0 0.00e+00    -  0.00e+00 0.00e+00   0
   1  3.5229957e+04 0.00e+00 3.86e+01  -1.0 2.94e-01   2.0 1.00e+00 1.00e+00f  1
   2  1.4287195e+04 0.00e+00 1.76e+01  -1.0 3.48e-01   1.5 1.00e+00 1.00e+00f  1
   3  5.3251887e+03 0.00e+00 7.45e+00  -1.0 4.17e-01   1.0 1.00e+00 1.00e+00f  1
   4  1.9165538e+03 0.00e+00 3.11e+00  -1.0 7.32e-01   0.6 1.00e+00 1.00e+00f  1
   5  1.0690884e+03 0.00e+00 1.94e+00  -1.0 1.68e-01   1.0 1.00e+00 1.00e+00f  1
   6  4.8252097e+02 0.00e+00 1.06e+00  -1.0 2.52e-01   0.5 1.00e+00 1.00e+00f  1
   7  1.6717668e+02 0.00e+00 4.39e-01  -1.0 2.85e-01   0.0 1.00e+00 1.00e+00f  1
   8  9.4757062e+01 0.00e+00 3.13e-01  -1.7 1.02e-01   0.5 1.00e+00 1.00e+00f  1
   9  3.6116658e+01 0.00e+00 1.70e-01  -1.7 1.64e-01  -0.0 1.00e+00 1.00e+00f  1
iter    objective    inf_pr   inf_du lg(mu)  ||d||  lg(rg) alpha_du alpha_pr  ls
  10  1.0164050e+01 0.00e+00 9.83e-02  -2.5 2.90e-01  -0.5 1.00e+00 1.00e+00f  1
  11  5.5146003e+00 0.00e+00 1.09e+00  -2.5 9.57e-01  -1.0 1.00e+00 1.00e+00f  1
  12  3.6563178e+00 0.00e+00 6.07e-01  -2.5 2.33e-01   0.4 1.00e+00 1.00e+00f  1
  13  2.6055509e+00 0.00e+00 3.14e-01  -2.5 8.06e-01  -0.1 1.00e+00 5.00e-01f  2
  14  2.4834342e+00 0.00e+00 1.06e+00  -2.5 5.16e+00  -0.6 1.00e+00 1.25e-01f  4
  15  1.8875274e+00 0.00e+00 2.07e-01  -2.5 2.17e-01  -0.2 1.00e+00 1.00e+00f  1
  16  1.4267579e+00 0.00e+00 1.09e-02  -2.5 6.20e-02  -0.6 1.00e+00 1.00e+00f  1
  17  1.1408856e+00 0.00e+00 5.16e-03  -3.8 5.60e-02  -1.1 1.00e+00 1.00e+00f  1
  18  1.0374312e+00 0.00e+00 2.16e-03  -3.8 6.39e-02  -1.6 1.00e+00 1.00e+00f  1
  19  1.0117429e+00 0.00e+00 9.13e-04  -3.8 1.08e-01  -2.1 1.00e+00 1.00e+00f  1
iter    objective    inf_pr   inf_du lg(mu)  ||d||  lg(rg) alpha_du alpha_pr  ls
  20  1.0052444e+00 0.00e+00 7.67e-04  -5.7 2.72e-01  -2.5 1.00e+00 1.00e+00f  1
  21  1.0000716e+00 0.00e+00 1.25e-04  -5.7 2.23e+00    -  1.00e+00 1.00e+00f  1
  22  1.0000021e+00 0.00e+00 3.57e-05  -5.7 5.12e-02    -  1.00e+00 1.00e+00f  1
  23  1.0000000e+00 0.00e+00 1.20e-06  -5.7 1.69e-02    -  1.00e+00 1.00e+00f  1
  24  1.0000000e+00 0.00e+00 6.39e-11  -8.6 6.10e-04    -  1.00e+00 1.00e+00f  1

Number of Iterations....: 24

                                   (scaled)                 (unscaled)
Objective...............:   1.0000000000000000e+00    1.0000000000000000e+00
Dual infeasibility......:   6.3866161464673474e-11    6.3866161464673474e-11
Constraint violation....:   0.0000000000000000e+00    0.0000000000000000e+00
Complementarity.........:   0.0000000000000000e+00    0.0000000000000000e+00
Overall NLP error.......:   6.3866161464673474e-11    6.3866161464673474e-11


Number of objective function evaluations             = 37
Number of objective gradient evaluations             = 25
Number of equality constraint evaluations            = 0
Number of inequality constraint evaluations          = 0
Number of equality constraint Jacobian evaluations   = 0
Number of inequality constraint Jacobian evaluations = 0
Number of Lagrangian Hessian evaluations             = 24
Total CPU secs in IPOPT (w/o function evaluations)   =      0.073
Total CPU secs in NLP function evaluations           =      0.030

EXIT: Optimal Solution Found.
Note: The following floating-point exceptions are signalling: IEEE_UNDERFLOW_FLAG IEEE_DENORMAL

 ** SUBROUTINE CUTEST_csetup: Warning. The problem has no general constraints. 
 ** Other tools may be preferable ** 

************************ CUTEst statistics ************************


 Package used            :  IPOPT
 Problem                 :  DIXMAANK  
 # variables             =            3000
 # constraints           =               0
 # objective functions   =        0.6300000E+02
 # objective gradients   =        0.2600000E+02
 # objective Hessians    =        0.2500000E+02
 # Hessian-vector prdct  =        0.0000000E+00
 # constraints functions =        0.0000000E+00
 # constraints gradients =        0.0000000E+00
 # constraints Hessians  =        0.0000000E+00
 Exit code               =               0
 Final f                 =   0.1000000E+01
 Set up time             =            0.05 seconds
 Solve time              =            0.31 seconds


******************************************************************

System Time =       0.0930000022 s.
